6 2 1 3 15 5 0 4 13 9 10 19 12 16 7 14 8 17 18 11
6 2 1 3 15 5 0 4 13 9 10 19 12 16 7 14 8 17 18 11
6 2 1 3 15 5 0 4 13 9 10 19 12 16 7 14 8 17 18 11
6 2 1 3 15 5 0 4 13 9 10 19 12 16 7 14 8 17 18 11
6 2 1 3 15 5 0 4 13 9 10 19 12 16 7 14 8 17 18 11
